p cnf 270 3270
11 12 13 14 15 16 17 18 19 0
21 22 23 24 25 26 27 28 29 0
31 32 33 34 35 36 37 38 39 0
41 42 43 44 45 46 47 48 49 0
51 52 53 54 55 56 57 58 59 0
61 62 63 64 65 66 67 68 69 0
71 72 73 74 75 76 77 78 79 0
81 82 83 84 85 86 87 88 89 0
91 92 93 94 95 96 97 98 99 0
101 102 103 104 105 106 107 108 109 0
111 112 113 114 115 116 117 118 119 0
121 122 123 124 125 126 127 128 129 0
131 132 133 134 135 136 137 138 139 0
141 142 143 144 145 146 147 148 149 0
151 152 153 154 155 156 157 158 159 0
161 162 163 164 165 166 167 168 169 0
171 172 173 174 175 176 177 178 179 0
181 182 183 184 185 186 187 188 189 0
191 192 193 194 195 196 197 198 199 0
201 202 203 204 205 206 207 208 209 0
211 212 213 214 215 216 217 218 219 0
221 222 223 224 225 226 227 228 229 0
231 232 233 234 235 236 237 238 239 0
241 242 243 244 245 246 247 248 249 0
251 252 253 254 255 256 257 258 259 0
261 262 263 264 265 266 267 268 269 0
271 272 273 274 275 276 277 278 279 0
281 282 283 284 285 286 287 288 289 0
291 292 293 294 295 296 297 298 299 0
301 302 303 304 305 306 307 308 309 0
-11 -12 0
-11 -13 0
-11 -14 0
-11 -15 0
-11 -16 0
-11 -17 0
-11 -18 0
-11 -19 0
-12 -13 0
-12 -14 0
-12 -15 0
-12 -16 0
-12 -17 0
-12 -18 0
-12 -19 0
-13 -14 0
-13 -15 0
-13 -16 0
-13 -17 0
-13 -18 0
-13 -19 0
-14 -15 0
-14 -16 0
-14 -17 0
-14 -18 0
-14 -19 0
-15 -16 0
-15 -17 0
-15 -18 0
-15 -19 0
-16 -17 0
-16 -18 0
-16 -19 0
-17 -18 0
-17 -19 0
-18 -19 0
-21 -22 0
-21 -23 0
-21 -24 0
-21 -25 0
-21 -26 0
-21 -27 0
-21 -28 0
-21 -29 0
-22 -23 0
-22 -24 0
-22 -25 0
-22 -26 0
-22 -27 0
-22 -28 0
-22 -29 0
-23 -24 0
-23 -25 0
-23 -26 0
-23 -27 0
-23 -28 0
-23 -29 0
-24 -25 0
-24 -26 0
-24 -27 0
-24 -28 0
-24 -29 0
-25 -26 0
-25 -27 0
-25 -28 0
-25 -29 0
-26 -27 0
-26 -28 0
-26 -29 0
-27 -28 0
-27 -29 0
-28 -29 0
-31 -32 0
-31 -33 0
-31 -34 0
-31 -35 0
-31 -36 0
-31 -37 0
-31 -38 0
-31 -39 0
-32 -33 0
-32 -34 0
-32 -35 0
-32 -36 0
-32 -37 0
-32 -38 0
-32 -39 0
-33 -34 0
-33 -35 0
-33 -36 0
-33 -37 0
-33 -38 0
-33 -39 0
-34 -35 0
-34 -36 0
-34 -37 0
-34 -38 0
-34 -39 0
-35 -36 0
-35 -37 0
-35 -38 0
-35 -39 0
-36 -37 0
-36 -38 0
-36 -39 0
-37 -38 0
-37 -39 0
-38 -39 0
-41 -42 0
-41 -43 0
-41 -44 0
-41 -45 0
-41 -46 0
-41 -47 0
-41 -48 0
-41 -49 0
-42 -43 0
-42 -44 0
-42 -45 0
-42 -46 0
-42 -47 0
-42 -48 0
-42 -49 0
-43 -44 0
-43 -45 0
-43 -46 0
-43 -47 0
-43 -48 0
-43 -49 0
-44 -45 0
-44 -46 0
-44 -47 0
-44 -48 0
-44 -49 0
-45 -46 0
-45 -47 0
-45 -48 0
-45 -49 0
-46 -47 0
-46 -48 0
-46 -49 0
-47 -48 0
-47 -49 0
-48 -49 0
-51 -52 0
-51 -53 0
-51 -54 0
-51 -55 0
-51 -56 0
-51 -57 0
-51 -58 0
-51 -59 0
-52 -53 0
-52 -54 0
-52 -55 0
-52 -56 0
-52 -57 0
-52 -58 0
-52 -59 0
-53 -54 0
-53 -55 0
-53 -56 0
-53 -57 0
-53 -58 0
-53 -59 0
-54 -55 0
-54 -56 0
-54 -57 0
-54 -58 0
-54 -59 0
-55 -56 0
-55 -57 0
-55 -58 0
-55 -59 0
-56 -57 0
-56 -58 0
-56 -59 0
-57 -58 0
-57 -59 0
-58 -59 0
-61 -62 0
-61 -63 0
-61 -64 0
-61 -65 0
-61 -66 0
-61 -67 0
-61 -68 0
-61 -69 0
-62 -63 0
-62 -64 0
-62 -65 0
-62 -66 0
-62 -67 0
-62 -68 0
-62 -69 0
-63 -64 0
-63 -65 0
-63 -66 0
-63 -67 0
-63 -68 0
-63 -69 0
-64 -65 0
-64 -66 0
-64 -67 0
-64 -68 0
-64 -69 0
-65 -66 0
-65 -67 0
-65 -68 0
-65 -69 0
-66 -67 0
-66 -68 0
-66 -69 0
-67 -68 0
-67 -69 0
-68 -69 0
-71 -72 0
-71 -73 0
-71 -74 0
-71 -75 0
-71 -76 0
-71 -77 0
-71 -78 0
-71 -79 0
-72 -73 0
-72 -74 0
-72 -75 0
-72 -76 0
-72 -77 0
-72 -78 0
-72 -79 0
-73 -74 0
-73 -75 0
-73 -76 0
-73 -77 0
-73 -78 0
-73 -79 0
-74 -75 0
-74 -76 0
-74 -77 0
-74 -78 0
-74 -79 0
-75 -76 0
-75 -77 0
-75 -78 0
-75 -79 0
-76 -77 0
-76 -78 0
-76 -79 0
-77 -78 0
-77 -79 0
-78 -79 0
-81 -82 0
-81 -83 0
-81 -84 0
-81 -85 0
-81 -86 0
-81 -87 0
-81 -88 0
-81 -89 0
-82 -83 0
-82 -84 0
-82 -85 0
-82 -86 0
-82 -87 0
-82 -88 0
-82 -89 0
-83 -84 0
-83 -85 0
-83 -86 0
-83 -87 0
-83 -88 0
-83 -89 0
-84 -85 0
-84 -86 0
-84 -87 0
-84 -88 0
-84 -89 0
-85 -86 0
-85 -87 0
-85 -88 0
-85 -89 0
-86 -87 0
-86 -88 0
-86 -89 0
-87 -88 0
-87 -89 0
-88 -89 0
-91 -92 0
-91 -93 0
-91 -94 0
-91 -95 0
-91 -96 0
-91 -97 0
-91 -98 0
-91 -99 0
-92 -93 0
-92 -94 0
-92 -95 0
-92 -96 0
-92 -97 0
-92 -98 0
-92 -99 0
-93 -94 0
-93 -95 0
-93 -96 0
-93 -97 0
-93 -98 0
-93 -99 0
-94 -95 0
-94 -96 0
-94 -97 0
-94 -98 0
-94 -99 0
-95 -96 0
-95 -97 0
-95 -98 0
-95 -99 0
-96 -97 0
-96 -98 0
-96 -99 0
-97 -98 0
-97 -99 0
-98 -99 0
-101 -102 0
-101 -103 0
-101 -104 0
-101 -105 0
-101 -106 0
-101 -107 0
-101 -108 0
-101 -109 0
-102 -103 0
-102 -104 0
-102 -105 0
-102 -106 0
-102 -107 0
-102 -108 0
-102 -109 0
-103 -104 0
-103 -105 0
-103 -106 0
-103 -107 0
-103 -108 0
-103 -109 0
-104 -105 0
-104 -106 0
-104 -107 0
-104 -108 0
-104 -109 0
-105 -106 0
-105 -107 0
-105 -108 0
-105 -109 0
-106 -107 0
-106 -108 0
-106 -109 0
-107 -108 0
-107 -109 0
-108 -109 0
-111 -112 0
-111 -113 0
-111 -114 0
-111 -115 0
-111 -116 0
-111 -117 0
-111 -118 0
-111 -119 0
-112 -113 0
-112 -114 0
-112 -115 0
-112 -116 0
-112 -117 0
-112 -118 0
-112 -119 0
-113 -114 0
-113 -115 0
-113 -116 0
-113 -117 0
-113 -118 0
-113 -119 0
-114 -115 0
-114 -116 0
-114 -117 0
-114 -118 0
-114 -119 0
-115 -116 0
-115 -117 0
-115 -118 0
-115 -119 0
-116 -117 0
-116 -118 0
-116 -119 0
-117 -118 0
-117 -119 0
-118 -119 0
-121 -122 0
-121 -123 0
-121 -124 0
-121 -125 0
-121 -126 0
-121 -127 0
-121 -128 0
-121 -129 0
-122 -123 0
-122 -124 0
-122 -125 0
-122 -126 0
-122 -127 0
-122 -128 0
-122 -129 0
-123 -124 0
-123 -125 0
-123 -126 0
-123 -127 0
-123 -128 0
-123 -129 0
-124 -125 0
-124 -126 0
-124 -127 0
-124 -128 0
-124 -129 0
-125 -126 0
-125 -127 0
-125 -128 0
-125 -129 0
-126 -127 0
-126 -128 0
-126 -129 0
-127 -128 0
-127 -129 0
-128 -129 0
-131 -132 0
-131 -133 0
-131 -134 0
-131 -135 0
-131 -136 0
-131 -137 0
-131 -138 0
-131 -139 0
-132 -133 0
-132 -134 0
-132 -135 0
-132 -136 0
-132 -137 0
-132 -138 0
-132 -139 0
-133 -134 0
-133 -135 0
-133 -136 0
-133 -137 0
-133 -138 0
-133 -139 0
-134 -135 0
-134 -136 0
-134 -137 0
-134 -138 0
-134 -139 0
-135 -136 0
-135 -137 0
-135 -138 0
-135 -139 0
-136 -137 0
-136 -138 0
-136 -139 0
-137 -138 0
-137 -139 0
-138 -139 0
-141 -142 0
-141 -143 0
-141 -144 0
-141 -145 0
-141 -146 0
-141 -147 0
-141 -148 0
-141 -149 0
-142 -143 0
-142 -144 0
-142 -145 0
-142 -146 0
-142 -147 0
-142 -148 0
-142 -149 0
-143 -144 0
-143 -145 0
-143 -146 0
-143 -147 0
-143 -148 0
-143 -149 0
-144 -145 0
-144 -146 0
-144 -147 0
-144 -148 0
-144 -149 0
-145 -146 0
-145 -147 0
-145 -148 0
-145 -149 0
-146 -147 0
-146 -148 0
-146 -149 0
-147 -148 0
-147 -149 0
-148 -149 0
-151 -152 0
-151 -153 0
-151 -154 0
-151 -155 0
-151 -156 0
-151 -157 0
-151 -158 0
-151 -159 0
-152 -153 0
-152 -154 0
-152 -155 0
-152 -156 0
-152 -157 0
-152 -158 0
-152 -159 0
-153 -154 0
-153 -155 0
-153 -156 0
-153 -157 0
-153 -158 0
-153 -159 0
-154 -155 0
-154 -156 0
-154 -157 0
-154 -158 0
-154 -159 0
-155 -156 0
-155 -157 0
-155 -158 0
-155 -159 0
-156 -157 0
-156 -158 0
-156 -159 0
-157 -158 0
-157 -159 0
-158 -159 0
-161 -162 0
-161 -163 0
-161 -164 0
-161 -165 0
-161 -166 0
-161 -167 0
-161 -168 0
-161 -169 0
-162 -163 0
-162 -164 0
-162 -165 0
-162 -166 0
-162 -167 0
-162 -168 0
-162 -169 0
-163 -164 0
-163 -165 0
-163 -166 0
-163 -167 0
-163 -168 0
-163 -169 0
-164 -165 0
-164 -166 0
-164 -167 0
-164 -168 0
-164 -169 0
-165 -166 0
-165 -167 0
-165 -168 0
-165 -169 0
-166 -167 0
-166 -168 0
-166 -169 0
-167 -168 0
-167 -169 0
-168 -169 0
-171 -172 0
-171 -173 0
-171 -174 0
-171 -175 0
-171 -176 0
-171 -177 0
-171 -178 0
-171 -179 0
-172 -173 0
-172 -174 0
-172 -175 0
-172 -176 0
-172 -177 0
-172 -178 0
-172 -179 0
-173 -174 0
-173 -175 0
-173 -176 0
-173 -177 0
-173 -178 0
-173 -179 0
-174 -175 0
-174 -176 0
-174 -177 0
-174 -178 0
-174 -179 0
-175 -176 0
-175 -177 0
-175 -178 0
-175 -179 0
-176 -177 0
-176 -178 0
-176 -179 0
-177 -178 0
-177 -179 0
-178 -179 0
-181 -182 0
-181 -183 0
-181 -184 0
-181 -185 0
-181 -186 0
-181 -187 0
-181 -188 0
-181 -189 0
-182 -183 0
-182 -184 0
-182 -185 0
-182 -186 0
-182 -187 0
-182 -188 0
-182 -189 0
-183 -184 0
-183 -185 0
-183 -186 0
-183 -187 0
-183 -188 0
-183 -189 0
-184 -185 0
-184 -186 0
-184 -187 0
-184 -188 0
-184 -189 0
-185 -186 0
-185 -187 0
-185 -188 0
-185 -189 0
-186 -187 0
-186 -188 0
-186 -189 0
-187 -188 0
-187 -189 0
-188 -189 0
-191 -192 0
-191 -193 0
-191 -194 0
-191 -195 0
-191 -196 0
-191 -197 0
-191 -198 0
-191 -199 0
-192 -193 0
-192 -194 0
-192 -195 0
-192 -196 0
-192 -197 0
-192 -198 0
-192 -199 0
-193 -194 0
-193 -195 0
-193 -196 0
-193 -197 0
-193 -198 0
-193 -199 0
-194 -195 0
-194 -196 0
-194 -197 0
-194 -198 0
-194 -199 0
-195 -196 0
-195 -197 0
-195 -198 0
-195 -199 0
-196 -197 0
-196 -198 0
-196 -199 0
-197 -198 0
-197 -199 0
-198 -199 0
-201 -202 0
-201 -203 0
-201 -204 0
-201 -205 0
-201 -206 0
-201 -207 0
-201 -208 0
-201 -209 0
-202 -203 0
-202 -204 0
-202 -205 0
-202 -206 0
-202 -207 0
-202 -208 0
-202 -209 0
-203 -204 0
-203 -205 0
-203 -206 0
-203 -207 0
-203 -208 0
-203 -209 0
-204 -205 0
-204 -206 0
-204 -207 0
-204 -208 0
-204 -209 0
-205 -206 0
-205 -207 0
-205 -208 0
-205 -209 0
-206 -207 0
-206 -208 0
-206 -209 0
-207 -208 0
-207 -209 0
-208 -209 0
-211 -212 0
-211 -213 0
-211 -214 0
-211 -215 0
-211 -216 0
-211 -217 0
-211 -218 0
-211 -219 0
-212 -213 0
-212 -214 0
-212 -215 0
-212 -216 0
-212 -217 0
-212 -218 0
-212 -219 0
-213 -214 0
-213 -215 0
-213 -216 0
-213 -217 0
-213 -218 0
-213 -219 0
-214 -215 0
-214 -216 0
-214 -217 0
-214 -218 0
-214 -219 0
-215 -216 0
-215 -217 0
-215 -218 0
-215 -219 0
-216 -217 0
-216 -218 0
-216 -219 0
-217 -218 0
-217 -219 0
-218 -219 0
-221 -222 0
-221 -223 0
-221 -224 0
-221 -225 0
-221 -226 0
-221 -227 0
-221 -228 0
-221 -229 0
-222 -223 0
-222 -224 0
-222 -225 0
-222 -226 0
-222 -227 0
-222 -228 0
-222 -229 0
-223 -224 0
-223 -225 0
-223 -226 0
-223 -227 0
-223 -228 0
-223 -229 0
-224 -225 0
-224 -226 0
-224 -227 0
-224 -228 0
-224 -229 0
-225 -226 0
-225 -227 0
-225 -228 0
-225 -229 0
-226 -227 0
-226 -228 0
-226 -229 0
-227 -228 0
-227 -229 0
-228 -229 0
-231 -232 0
-231 -233 0
-231 -234 0
-231 -235 0
-231 -236 0
-231 -237 0
-231 -238 0
-231 -239 0
-232 -233 0
-232 -234 0
-232 -235 0
-232 -236 0
-232 -237 0
-232 -238 0
-232 -239 0
-233 -234 0
-233 -235 0
-233 -236 0
-233 -237 0
-233 -238 0
-233 -239 0
-234 -235 0
-234 -236 0
-234 -237 0
-234 -238 0
-234 -239 0
-235 -236 0
-235 -237 0
-235 -238 0
-235 -239 0
-236 -237 0
-236 -238 0
-236 -239 0
-237 -238 0
-237 -239 0
-238 -239 0
-241 -242 0
-241 -243 0
-241 -244 0
-241 -245 0
-241 -246 0
-241 -247 0
-241 -248 0
-241 -249 0
-242 -243 0
-242 -244 0
-242 -245 0
-242 -246 0
-242 -247 0
-242 -248 0
-242 -249 0
-243 -244 0
-243 -245 0
-243 -246 0
-243 -247 0
-243 -248 0
-243 -249 0
-244 -245 0
-244 -246 0
-244 -247 0
-244 -248 0
-244 -249 0
-245 -246 0
-245 -247 0
-245 -248 0
-245 -249 0
-246 -247 0
-246 -248 0
-246 -249 0
-247 -248 0
-247 -249 0
-248 -249 0
-251 -252 0
-251 -253 0
-251 -254 0
-251 -255 0
-251 -256 0
-251 -257 0
-251 -258 0
-251 -259 0
-252 -253 0
-252 -254 0
-252 -255 0
-252 -256 0
-252 -257 0
-252 -258 0
-252 -259 0
-253 -254 0
-253 -255 0
-253 -256 0
-253 -257 0
-253 -258 0
-253 -259 0
-254 -255 0
-254 -256 0
-254 -257 0
-254 -258 0
-254 -259 0
-255 -256 0
-255 -257 0
-255 -258 0
-255 -259 0
-256 -257 0
-256 -258 0
-256 -259 0
-257 -258 0
-257 -259 0
-258 -259 0
-261 -262 0
-261 -263 0
-261 -264 0
-261 -265 0
-261 -266 0
-261 -267 0
-261 -268 0
-261 -269 0
-262 -263 0
-262 -264 0
-262 -265 0
-262 -266 0
-262 -267 0
-262 -268 0
-262 -269 0
-263 -264 0
-263 -265 0
-263 -266 0
-263 -267 0
-263 -268 0
-263 -269 0
-264 -265 0
-264 -266 0
-264 -267 0
-264 -268 0
-264 -269 0
-265 -266 0
-265 -267 0
-265 -268 0
-265 -269 0
-266 -267 0
-266 -268 0
-266 -269 0
-267 -268 0
-267 -269 0
-268 -269 0
-271 -272 0
-271 -273 0
-271 -274 0
-271 -275 0
-271 -276 0
-271 -277 0
-271 -278 0
-271 -279 0
-272 -273 0
-272 -274 0
-272 -275 0
-272 -276 0
-272 -277 0
-272 -278 0
-272 -279 0
-273 -274 0
-273 -275 0
-273 -276 0
-273 -277 0
-273 -278 0
-273 -279 0
-274 -275 0
-274 -276 0
-274 -277 0
-274 -278 0
-274 -279 0
-275 -276 0
-275 -277 0
-275 -278 0
-275 -279 0
-276 -277 0
-276 -278 0
-276 -279 0
-277 -278 0
-277 -279 0
-278 -279 0
-281 -282 0
-281 -283 0
-281 -284 0
-281 -285 0
-281 -286 0
-281 -287 0
-281 -288 0
-281 -289 0
-282 -283 0
-282 -284 0
-282 -285 0
-282 -286 0
-282 -287 0
-282 -288 0
-282 -289 0
-283 -284 0
-283 -285 0
-283 -286 0
-283 -287 0
-283 -288 0
-283 -289 0
-284 -285 0
-284 -286 0
-284 -287 0
-284 -288 0
-284 -289 0
-285 -286 0
-285 -287 0
-285 -288 0
-285 -289 0
-286 -287 0
-286 -288 0
-286 -289 0
-287 -288 0
-287 -289 0
-288 -289 0
-291 -292 0
-291 -293 0
-291 -294 0
-291 -295 0
-291 -296 0
-291 -297 0
-291 -298 0
-291 -299 0
-292 -293 0
-292 -294 0
-292 -295 0
-292 -296 0
-292 -297 0
-292 -298 0
-292 -299 0
-293 -294 0
-293 -295 0
-293 -296 0
-293 -297 0
-293 -298 0
-293 -299 0
-294 -295 0
-294 -296 0
-294 -297 0
-294 -298 0
-294 -299 0
-295 -296 0
-295 -297 0
-295 -298 0
-295 -299 0
-296 -297 0
-296 -298 0
-296 -299 0
-297 -298 0
-297 -299 0
-298 -299 0
-301 -302 0
-301 -303 0
-301 -304 0
-301 -305 0
-301 -306 0
-301 -307 0
-301 -308 0
-301 -309 0
-302 -303 0
-302 -304 0
-302 -305 0
-302 -306 0
-302 -307 0
-302 -308 0
-302 -309 0
-303 -304 0
-303 -305 0
-303 -306 0
-303 -307 0
-303 -308 0
-303 -309 0
-304 -305 0
-304 -306 0
-304 -307 0
-304 -308 0
-304 -309 0
-305 -306 0
-305 -307 0
-305 -308 0
-305 -309 0
-306 -307 0
-306 -308 0
-306 -309 0
-307 -308 0
-307 -309 0
-308 -309 0
-11 -41 0
-12 -42 0
-13 -43 0
-14 -44 0
-15 -45 0
-16 -46 0
-17 -47 0
-18 -48 0
-19 -49 0
-11 -61 0
-12 -62 0
-13 -63 0
-14 -64 0
-15 -65 0
-16 -66 0
-17 -67 0
-18 -68 0
-19 -69 0
-11 -71 0
-12 -72 0
-13 -73 0
-14 -74 0
-15 -75 0
-16 -76 0
-17 -77 0
-18 -78 0
-19 -79 0
-11 -81 0
-12 -82 0
-13 -83 0
-14 -84 0
-15 -85 0
-16 -86 0
-17 -87 0
-18 -88 0
-19 -89 0
-11 -101 0
-12 -102 0
-13 -103 0
-14 -104 0
-15 -105 0
-16 -106 0
-17 -107 0
-18 -108 0
-19 -109 0
-11 -111 0
-12 -112 0
-13 -113 0
-14 -114 0
-15 -115 0
-16 -116 0
-17 -117 0
-18 -118 0
-19 -119 0
-11 -121 0
-12 -122 0
-13 -123 0
-14 -124 0
-15 -125 0
-16 -126 0
-17 -127 0
-18 -128 0
-19 -129 0
-11 -151 0
-12 -152 0
-13 -153 0
-14 -154 0
-15 -155 0
-16 -156 0
-17 -157 0
-18 -158 0
-19 -159 0
-11 -161 0
-12 -162 0
-13 -163 0
-14 -164 0
-15 -165 0
-16 -166 0
-17 -167 0
-18 -168 0
-19 -169 0
-11 -191 0
-12 -192 0
-13 -193 0
-14 -194 0
-15 -195 0
-16 -196 0
-17 -197 0
-18 -198 0
-19 -199 0
-11 -201 0
-12 -202 0
-13 -203 0
-14 -204 0
-15 -205 0
-16 -206 0
-17 -207 0
-18 -208 0
-19 -209 0
-11 -211 0
-12 -212 0
-13 -213 0
-14 -214 0
-15 -215 0
-16 -216 0
-17 -217 0
-18 -218 0
-19 -219 0
-11 -221 0
-12 -222 0
-13 -223 0
-14 -224 0
-15 -225 0
-16 -226 0
-17 -227 0
-18 -228 0
-19 -229 0
-11 -231 0
-12 -232 0
-13 -233 0
-14 -234 0
-15 -235 0
-16 -236 0
-17 -237 0
-18 -238 0
-19 -239 0
-11 -241 0
-12 -242 0
-13 -243 0
-14 -244 0
-15 -245 0
-16 -246 0
-17 -247 0
-18 -248 0
-19 -249 0
-11 -261 0
-12 -262 0
-13 -263 0
-14 -264 0
-15 -265 0
-16 -266 0
-17 -267 0
-18 -268 0
-19 -269 0
-11 -281 0
-12 -282 0
-13 -283 0
-14 -284 0
-15 -285 0
-16 -286 0
-17 -287 0
-18 -288 0
-19 -289 0
-11 -301 0
-12 -302 0
-13 -303 0
-14 -304 0
-15 -305 0
-16 -306 0
-17 -307 0
-18 -308 0
-19 -309 0
-21 -41 0
-22 -42 0
-23 -43 0
-24 -44 0
-25 -45 0
-26 -46 0
-27 -47 0
-28 -48 0
-29 -49 0
-21 -51 0
-22 -52 0
-23 -53 0
-24 -54 0
-25 -55 0
-26 -56 0
-27 -57 0
-28 -58 0
-29 -59 0
-21 -91 0
-22 -92 0
-23 -93 0
-24 -94 0
-25 -95 0
-26 -96 0
-27 -97 0
-28 -98 0
-29 -99 0
-21 -121 0
-22 -122 0
-23 -123 0
-24 -124 0
-25 -125 0
-26 -126 0
-27 -127 0
-28 -128 0
-29 -129 0
-21 -131 0
-22 -132 0
-23 -133 0
-24 -134 0
-25 -135 0
-26 -136 0
-27 -137 0
-28 -138 0
-29 -139 0
-21 -151 0
-22 -152 0
-23 -153 0
-24 -154 0
-25 -155 0
-26 -156 0
-27 -157 0
-28 -158 0
-29 -159 0
-21 -181 0
-22 -182 0
-23 -183 0
-24 -184 0
-25 -185 0
-26 -186 0
-27 -187 0
-28 -188 0
-29 -189 0
-21 -191 0
-22 -192 0
-23 -193 0
-24 -194 0
-25 -195 0
-26 -196 0
-27 -197 0
-28 -198 0
-29 -199 0
-21 -201 0
-22 -202 0
-23 -203 0
-24 -204 0
-25 -205 0
-26 -206 0
-27 -207 0
-28 -208 0
-29 -209 0
-21 -211 0
-22 -212 0
-23 -213 0
-24 -214 0
-25 -215 0
-26 -216 0
-27 -217 0
-28 -218 0
-29 -219 0
-21 -251 0
-22 -252 0
-23 -253 0
-24 -254 0
-25 -255 0
-26 -256 0
-27 -257 0
-28 -258 0
-29 -259 0
-21 -261 0
-22 -262 0
-23 -263 0
-24 -264 0
-25 -265 0
-26 -266 0
-27 -267 0
-28 -268 0
-29 -269 0
-21 -291 0
-22 -292 0
-23 -293 0
-24 -294 0
-25 -295 0
-26 -296 0
-27 -297 0
-28 -298 0
-29 -299 0
-31 -41 0
-32 -42 0
-33 -43 0
-34 -44 0
-35 -45 0
-36 -46 0
-37 -47 0
-38 -48 0
-39 -49 0
-31 -51 0
-32 -52 0
-33 -53 0
-34 -54 0
-35 -55 0
-36 -56 0
-37 -57 0
-38 -58 0
-39 -59 0
-31 -61 0
-32 -62 0
-33 -63 0
-34 -64 0
-35 -65 0
-36 -66 0
-37 -67 0
-38 -68 0
-39 -69 0
-31 -71 0
-32 -72 0
-33 -73 0
-34 -74 0
-35 -75 0
-36 -76 0
-37 -77 0
-38 -78 0
-39 -79 0
-31 -81 0
-32 -82 0
-33 -83 0
-34 -84 0
-35 -85 0
-36 -86 0
-37 -87 0
-38 -88 0
-39 -89 0
-31 -91 0
-32 -92 0
-33 -93 0
-34 -94 0
-35 -95 0
-36 -96 0
-37 -97 0
-38 -98 0
-39 -99 0
-31 -121 0
-32 -122 0
-33 -123 0
-34 -124 0
-35 -125 0
-36 -126 0
-37 -127 0
-38 -128 0
-39 -129 0
-31 -131 0
-32 -132 0
-33 -133 0
-34 -134 0
-35 -135 0
-36 -136 0
-37 -137 0
-38 -138 0
-39 -139 0
-31 -161 0
-32 -162 0
-33 -163 0
-34 -164 0
-35 -165 0
-36 -166 0
-37 -167 0
-38 -168 0
-39 -169 0
-31 -191 0
-32 -192 0
-33 -193 0
-34 -194 0
-35 -195 0
-36 -196 0
-37 -197 0
-38 -198 0
-39 -199 0
-31 -201 0
-32 -202 0
-33 -203 0
-34 -204 0
-35 -205 0
-36 -206 0
-37 -207 0
-38 -208 0
-39 -209 0
-31 -211 0
-32 -212 0
-33 -213 0
-34 -214 0
-35 -215 0
-36 -216 0
-37 -217 0
-38 -218 0
-39 -219 0
-31 -221 0
-32 -222 0
-33 -223 0
-34 -224 0
-35 -225 0
-36 -226 0
-37 -227 0
-38 -228 0
-39 -229 0
-31 -231 0
-32 -232 0
-33 -233 0
-34 -234 0
-35 -235 0
-36 -236 0
-37 -237 0
-38 -238 0
-39 -239 0
-31 -241 0
-32 -242 0
-33 -243 0
-34 -244 0
-35 -245 0
-36 -246 0
-37 -247 0
-38 -248 0
-39 -249 0
-31 -271 0
-32 -272 0
-33 -273 0
-34 -274 0
-35 -275 0
-36 -276 0
-37 -277 0
-38 -278 0
-39 -279 0
-31 -291 0
-32 -292 0
-33 -293 0
-34 -294 0
-35 -295 0
-36 -296 0
-37 -297 0
-38 -298 0
-39 -299 0
-41 -51 0
-42 -52 0
-43 -53 0
-44 -54 0
-45 -55 0
-46 -56 0
-47 -57 0
-48 -58 0
-49 -59 0
-41 -71 0
-42 -72 0
-43 -73 0
-44 -74 0
-45 -75 0
-46 -76 0
-47 -77 0
-48 -78 0
-49 -79 0
-41 -91 0
-42 -92 0
-43 -93 0
-44 -94 0
-45 -95 0
-46 -96 0
-47 -97 0
-48 -98 0
-49 -99 0
-41 -101 0
-42 -102 0
-43 -103 0
-44 -104 0
-45 -105 0
-46 -106 0
-47 -107 0
-48 -108 0
-49 -109 0
-41 -111 0
-42 -112 0
-43 -113 0
-44 -114 0
-45 -115 0
-46 -116 0
-47 -117 0
-48 -118 0
-49 -119 0
-41 -141 0
-42 -142 0
-43 -143 0
-44 -144 0
-45 -145 0
-46 -146 0
-47 -147 0
-48 -148 0
-49 -149 0
-41 -151 0
-42 -152 0
-43 -153 0
-44 -154 0
-45 -155 0
-46 -156 0
-47 -157 0
-48 -158 0
-49 -159 0
-41 -161 0
-42 -162 0
-43 -163 0
-44 -164 0
-45 -165 0
-46 -166 0
-47 -167 0
-48 -168 0
-49 -169 0
-41 -171 0
-42 -172 0
-43 -173 0
-44 -174 0
-45 -175 0
-46 -176 0
-47 -177 0
-48 -178 0
-49 -179 0
-41 -181 0
-42 -182 0
-43 -183 0
-44 -184 0
-45 -185 0
-46 -186 0
-47 -187 0
-48 -188 0
-49 -189 0
-41 -211 0
-42 -212 0
-43 -213 0
-44 -214 0
-45 -215 0
-46 -216 0
-47 -217 0
-48 -218 0
-49 -219 0
-41 -221 0
-42 -222 0
-43 -223 0
-44 -224 0
-45 -225 0
-46 -226 0
-47 -227 0
-48 -228 0
-49 -229 0
-41 -231 0
-42 -232 0
-43 -233 0
-44 -234 0
-45 -235 0
-46 -236 0
-47 -237 0
-48 -238 0
-49 -239 0
-41 -271 0
-42 -272 0
-43 -273 0
-44 -274 0
-45 -275 0
-46 -276 0
-47 -277 0
-48 -278 0
-49 -279 0
-41 -281 0
-42 -282 0
-43 -283 0
-44 -284 0
-45 -285 0
-46 -286 0
-47 -287 0
-48 -288 0
-49 -289 0
-41 -291 0
-42 -292 0
-43 -293 0
-44 -294 0
-45 -295 0
-46 -296 0
-47 -297 0
-48 -298 0
-49 -299 0
-51 -61 0
-52 -62 0
-53 -63 0
-54 -64 0
-55 -65 0
-56 -66 0
-57 -67 0
-58 -68 0
-59 -69 0
-51 -81 0
-52 -82 0
-53 -83 0
-54 -84 0
-55 -85 0
-56 -86 0
-57 -87 0
-58 -88 0
-59 -89 0
-51 -101 0
-52 -102 0
-53 -103 0
-54 -104 0
-55 -105 0
-56 -106 0
-57 -107 0
-58 -108 0
-59 -109 0
-51 -111 0
-52 -112 0
-53 -113 0
-54 -114 0
-55 -115 0
-56 -116 0
-57 -117 0
-58 -118 0
-59 -119 0
-51 -141 0
-52 -142 0
-53 -143 0
-54 -144 0
-55 -145 0
-56 -146 0
-57 -147 0
-58 -148 0
-59 -149 0
-51 -151 0
-52 -152 0
-53 -153 0
-54 -154 0
-55 -155 0
-56 -156 0
-57 -157 0
-58 -158 0
-59 -159 0
-51 -161 0
-52 -162 0
-53 -163 0
-54 -164 0
-55 -165 0
-56 -166 0
-57 -167 0
-58 -168 0
-59 -169 0
-51 -181 0
-52 -182 0
-53 -183 0
-54 -184 0
-55 -185 0
-56 -186 0
-57 -187 0
-58 -188 0
-59 -189 0
-51 -191 0
-52 -192 0
-53 -193 0
-54 -194 0
-55 -195 0
-56 -196 0
-57 -197 0
-58 -198 0
-59 -199 0
-51 -201 0
-52 -202 0
-53 -203 0
-54 -204 0
-55 -205 0
-56 -206 0
-57 -207 0
-58 -208 0
-59 -209 0
-51 -211 0
-52 -212 0
-53 -213 0
-54 -214 0
-55 -215 0
-56 -216 0
-57 -217 0
-58 -218 0
-59 -219 0
-51 -221 0
-52 -222 0
-53 -223 0
-54 -224 0
-55 -225 0
-56 -226 0
-57 -227 0
-58 -228 0
-59 -229 0
-51 -231 0
-52 -232 0
-53 -233 0
-54 -234 0
-55 -235 0
-56 -236 0
-57 -237 0
-58 -238 0
-59 -239 0
-51 -241 0
-52 -242 0
-53 -243 0
-54 -244 0
-55 -245 0
-56 -246 0
-57 -247 0
-58 -248 0
-59 -249 0
-51 -251 0
-52 -252 0
-53 -253 0
-54 -254 0
-55 -255 0
-56 -256 0
-57 -257 0
-58 -258 0
-59 -259 0
-51 -261 0
-52 -262 0
-53 -263 0
-54 -264 0
-55 -265 0
-56 -266 0
-57 -267 0
-58 -268 0
-59 -269 0
-51 -271 0
-52 -272 0
-53 -273 0
-54 -274 0
-55 -275 0
-56 -276 0
-57 -277 0
-58 -278 0
-59 -279 0
-51 -281 0
-52 -282 0
-53 -283 0
-54 -284 0
-55 -285 0
-56 -286 0
-57 -287 0
-58 -288 0
-59 -289 0
-51 -291 0
-52 -292 0
-53 -293 0
-54 -294 0
-55 -295 0
-56 -296 0
-57 -297 0
-58 -298 0
-59 -299 0
-51 -301 0
-52 -302 0
-53 -303 0
-54 -304 0
-55 -305 0
-56 -306 0
-57 -307 0
-58 -308 0
-59 -309 0
-61 -101 0
-62 -102 0
-63 -103 0
-64 -104 0
-65 -105 0
-66 -106 0
-67 -107 0
-68 -108 0
-69 -109 0
-61 -131 0
-62 -132 0
-63 -133 0
-64 -134 0
-65 -135 0
-66 -136 0
-67 -137 0
-68 -138 0
-69 -139 0
-61 -141 0
-62 -142 0
-63 -143 0
-64 -144 0
-65 -145 0
-66 -146 0
-67 -147 0
-68 -148 0
-69 -149 0
-61 -151 0
-62 -152 0
-63 -153 0
-64 -154 0
-65 -155 0
-66 -156 0
-67 -157 0
-68 -158 0
-69 -159 0
-61 -161 0
-62 -162 0
-63 -163 0
-64 -164 0
-65 -165 0
-66 -166 0
-67 -167 0
-68 -168 0
-69 -169 0
-61 -181 0
-62 -182 0
-63 -183 0
-64 -184 0
-65 -185 0
-66 -186 0
-67 -187 0
-68 -188 0
-69 -189 0
-61 -231 0
-62 -232 0
-63 -233 0
-64 -234 0
-65 -235 0
-66 -236 0
-67 -237 0
-68 -238 0
-69 -239 0
-61 -241 0
-62 -242 0
-63 -243 0
-64 -244 0
-65 -245 0
-66 -246 0
-67 -247 0
-68 -248 0
-69 -249 0
-61 -261 0
-62 -262 0
-63 -263 0
-64 -264 0
-65 -265 0
-66 -266 0
-67 -267 0
-68 -268 0
-69 -269 0
-61 -271 0
-62 -272 0
-63 -273 0
-64 -274 0
-65 -275 0
-66 -276 0
-67 -277 0
-68 -278 0
-69 -279 0
-61 -281 0
-62 -282 0
-63 -283 0
-64 -284 0
-65 -285 0
-66 -286 0
-67 -287 0
-68 -288 0
-69 -289 0
-61 -291 0
-62 -292 0
-63 -293 0
-64 -294 0
-65 -295 0
-66 -296 0
-67 -297 0
-68 -298 0
-69 -299 0
-61 -301 0
-62 -302 0
-63 -303 0
-64 -304 0
-65 -305 0
-66 -306 0
-67 -307 0
-68 -308 0
-69 -309 0
-71 -111 0
-72 -112 0
-73 -113 0
-74 -114 0
-75 -115 0
-76 -116 0
-77 -117 0
-78 -118 0
-79 -119 0
-71 -131 0
-72 -132 0
-73 -133 0
-74 -134 0
-75 -135 0
-76 -136 0
-77 -137 0
-78 -138 0
-79 -139 0
-71 -181 0
-72 -182 0
-73 -183 0
-74 -184 0
-75 -185 0
-76 -186 0
-77 -187 0
-78 -188 0
-79 -189 0
-71 -191 0
-72 -192 0
-73 -193 0
-74 -194 0
-75 -195 0
-76 -196 0
-77 -197 0
-78 -198 0
-79 -199 0
-71 -221 0
-72 -222 0
-73 -223 0
-74 -224 0
-75 -225 0
-76 -226 0
-77 -227 0
-78 -228 0
-79 -229 0
-71 -251 0
-72 -252 0
-73 -253 0
-74 -254 0
-75 -255 0
-76 -256 0
-77 -257 0
-78 -258 0
-79 -259 0
-71 -261 0
-72 -262 0
-73 -263 0
-74 -264 0
-75 -265 0
-76 -266 0
-77 -267 0
-78 -268 0
-79 -269 0
-71 -281 0
-72 -282 0
-73 -283 0
-74 -284 0
-75 -285 0
-76 -286 0
-77 -287 0
-78 -288 0
-79 -289 0
-71 -291 0
-72 -292 0
-73 -293 0
-74 -294 0
-75 -295 0
-76 -296 0
-77 -297 0
-78 -298 0
-79 -299 0
-81 -91 0
-82 -92 0
-83 -93 0
-84 -94 0
-85 -95 0
-86 -96 0
-87 -97 0
-88 -98 0
-89 -99 0
-81 -111 0
-82 -112 0
-83 -113 0
-84 -114 0
-85 -115 0
-86 -116 0
-87 -117 0
-88 -118 0
-89 -119 0
-81 -131 0
-82 -132 0
-83 -133 0
-84 -134 0
-85 -135 0
-86 -136 0
-87 -137 0
-88 -138 0
-89 -139 0
-81 -161 0
-82 -162 0
-83 -163 0
-84 -164 0
-85 -165 0
-86 -166 0
-87 -167 0
-88 -168 0
-89 -169 0
-81 -181 0
-82 -182 0
-83 -183 0
-84 -184 0
-85 -185 0
-86 -186 0
-87 -187 0
-88 -188 0
-89 -189 0
-81 -191 0
-82 -192 0
-83 -193 0
-84 -194 0
-85 -195 0
-86 -196 0
-87 -197 0
-88 -198 0
-89 -199 0
-81 -231 0
-82 -232 0
-83 -233 0
-84 -234 0
-85 -235 0
-86 -236 0
-87 -237 0
-88 -238 0
-89 -239 0
-81 -251 0
-82 -252 0
-83 -253 0
-84 -254 0
-85 -255 0
-86 -256 0
-87 -257 0
-88 -258 0
-89 -259 0
-81 -261 0
-82 -262 0
-83 -263 0
-84 -264 0
-85 -265 0
-86 -266 0
-87 -267 0
-88 -268 0
-89 -269 0
-81 -281 0
-82 -282 0
-83 -283 0
-84 -284 0
-85 -285 0
-86 -286 0
-87 -287 0
-88 -288 0
-89 -289 0
-81 -301 0
-82 -302 0
-83 -303 0
-84 -304 0
-85 -305 0
-86 -306 0
-87 -307 0
-88 -308 0
-89 -309 0
-91 -101 0
-92 -102 0
-93 -103 0
-94 -104 0
-95 -105 0
-96 -106 0
-97 -107 0
-98 -108 0
-99 -109 0
-91 -121 0
-92 -122 0
-93 -123 0
-94 -124 0
-95 -125 0
-96 -126 0
-97 -127 0
-98 -128 0
-99 -129 0
-91 -131 0
-92 -132 0
-93 -133 0
-94 -134 0
-95 -135 0
-96 -136 0
-97 -137 0
-98 -138 0
-99 -139 0
-91 -141 0
-92 -142 0
-93 -143 0
-94 -144 0
-95 -145 0
-96 -146 0
-97 -147 0
-98 -148 0
-99 -149 0
-91 -151 0
-92 -152 0
-93 -153 0
-94 -154 0
-95 -155 0
-96 -156 0
-97 -157 0
-98 -158 0
-99 -159 0
-91 -171 0
-92 -172 0
-93 -173 0
-94 -174 0
-95 -175 0
-96 -176 0
-97 -177 0
-98 -178 0
-99 -179 0
-91 -181 0
-92 -182 0
-93 -183 0
-94 -184 0
-95 -185 0
-96 -186 0
-97 -187 0
-98 -188 0
-99 -189 0
-91 -211 0
-92 -212 0
-93 -213 0
-94 -214 0
-95 -215 0
-96 -216 0
-97 -217 0
-98 -218 0
-99 -219 0
-91 -241 0
-92 -242 0
-93 -243 0
-94 -244 0
-95 -245 0
-96 -246 0
-97 -247 0
-98 -248 0
-99 -249 0
-91 -251 0
-92 -252 0
-93 -253 0
-94 -254 0
-95 -255 0
-96 -256 0
-97 -257 0
-98 -258 0
-99 -259 0
-91 -271 0
-92 -272 0
-93 -273 0
-94 -274 0
-95 -275 0
-96 -276 0
-97 -277 0
-98 -278 0
-99 -279 0
-91 -281 0
-92 -282 0
-93 -283 0
-94 -284 0
-95 -285 0
-96 -286 0
-97 -287 0
-98 -288 0
-99 -289 0
-91 -291 0
-92 -292 0
-93 -293 0
-94 -294 0
-95 -295 0
-96 -296 0
-97 -297 0
-98 -298 0
-99 -299 0
-101 -111 0
-102 -112 0
-103 -113 0
-104 -114 0
-105 -115 0
-106 -116 0
-107 -117 0
-108 -118 0
-109 -119 0
-101 -121 0
-102 -122 0
-103 -123 0
-104 -124 0
-105 -125 0
-106 -126 0
-107 -127 0
-108 -128 0
-109 -129 0
-101 -161 0
-102 -162 0
-103 -163 0
-104 -164 0
-105 -165 0
-106 -166 0
-107 -167 0
-108 -168 0
-109 -169 0
-101 -171 0
-102 -172 0
-103 -173 0
-104 -174 0
-105 -175 0
-106 -176 0
-107 -177 0
-108 -178 0
-109 -179 0
-101 -241 0
-102 -242 0
-103 -243 0
-104 -244 0
-105 -245 0
-106 -246 0
-107 -247 0
-108 -248 0
-109 -249 0
-101 -251 0
-102 -252 0
-103 -253 0
-104 -254 0
-105 -255 0
-106 -256 0
-107 -257 0
-108 -258 0
-109 -259 0
-101 -261 0
-102 -262 0
-103 -263 0
-104 -264 0
-105 -265 0
-106 -266 0
-107 -267 0
-108 -268 0
-109 -269 0
-101 -271 0
-102 -272 0
-103 -273 0
-104 -274 0
-105 -275 0
-106 -276 0
-107 -277 0
-108 -278 0
-109 -279 0
-101 -301 0
-102 -302 0
-103 -303 0
-104 -304 0
-105 -305 0
-106 -306 0
-107 -307 0
-108 -308 0
-109 -309 0
-111 -121 0
-112 -122 0
-113 -123 0
-114 -124 0
-115 -125 0
-116 -126 0
-117 -127 0
-118 -128 0
-119 -129 0
-111 -131 0
-112 -132 0
-113 -133 0
-114 -134 0
-115 -135 0
-116 -136 0
-117 -137 0
-118 -138 0
-119 -139 0
-111 -141 0
-112 -142 0
-113 -143 0
-114 -144 0
-115 -145 0
-116 -146 0
-117 -147 0
-118 -148 0
-119 -149 0
-111 -181 0
-112 -182 0
-113 -183 0
-114 -184 0
-115 -185 0
-116 -186 0
-117 -187 0
-118 -188 0
-119 -189 0
-111 -201 0
-112 -202 0
-113 -203 0
-114 -204 0
-115 -205 0
-116 -206 0
-117 -207 0
-118 -208 0
-119 -209 0
-111 -231 0
-112 -232 0
-113 -233 0
-114 -234 0
-115 -235 0
-116 -236 0
-117 -237 0
-118 -238 0
-119 -239 0
-111 -251 0
-112 -252 0
-113 -253 0
-114 -254 0
-115 -255 0
-116 -256 0
-117 -257 0
-118 -258 0
-119 -259 0
-121 -151 0
-122 -152 0
-123 -153 0
-124 -154 0
-125 -155 0
-126 -156 0
-127 -157 0
-128 -158 0
-129 -159 0
-121 -161 0
-122 -162 0
-123 -163 0
-124 -164 0
-125 -165 0
-126 -166 0
-127 -167 0
-128 -168 0
-129 -169 0
-121 -171 0
-122 -172 0
-123 -173 0
-124 -174 0
-125 -175 0
-126 -176 0
-127 -177 0
-128 -178 0
-129 -179 0
-121 -181 0
-122 -182 0
-123 -183 0
-124 -184 0
-125 -185 0
-126 -186 0
-127 -187 0
-128 -188 0
-129 -189 0
-121 -201 0
-122 -202 0
-123 -203 0
-124 -204 0
-125 -205 0
-126 -206 0
-127 -207 0
-128 -208 0
-129 -209 0
-121 -261 0
-122 -262 0
-123 -263 0
-124 -264 0
-125 -265 0
-126 -266 0
-127 -267 0
-128 -268 0
-129 -269 0
-121 -271 0
-122 -272 0
-123 -273 0
-124 -274 0
-125 -275 0
-126 -276 0
-127 -277 0
-128 -278 0
-129 -279 0
-121 -291 0
-122 -292 0
-123 -293 0
-124 -294 0
-125 -295 0
-126 -296 0
-127 -297 0
-128 -298 0
-129 -299 0
-131 -141 0
-132 -142 0
-133 -143 0
-134 -144 0
-135 -145 0
-136 -146 0
-137 -147 0
-138 -148 0
-139 -149 0
-131 -161 0
-132 -162 0
-133 -163 0
-134 -164 0
-135 -165 0
-136 -166 0
-137 -167 0
-138 -168 0
-139 -169 0
-131 -171 0
-132 -172 0
-133 -173 0
-134 -174 0
-135 -175 0
-136 -176 0
-137 -177 0
-138 -178 0
-139 -179 0
-131 -191 0
-132 -192 0
-133 -193 0
-134 -194 0
-135 -195 0
-136 -196 0
-137 -197 0
-138 -198 0
-139 -199 0
-131 -201 0
-132 -202 0
-133 -203 0
-134 -204 0
-135 -205 0
-136 -206 0
-137 -207 0
-138 -208 0
-139 -209 0
-131 -221 0
-132 -222 0
-133 -223 0
-134 -224 0
-135 -225 0
-136 -226 0
-137 -227 0
-138 -228 0
-139 -229 0
-131 -231 0
-132 -232 0
-133 -233 0
-134 -234 0
-135 -235 0
-136 -236 0
-137 -237 0
-138 -238 0
-139 -239 0
-131 -241 0
-132 -242 0
-133 -243 0
-134 -244 0
-135 -245 0
-136 -246 0
-137 -247 0
-138 -248 0
-139 -249 0
-131 -251 0
-132 -252 0
-133 -253 0
-134 -254 0
-135 -255 0
-136 -256 0
-137 -257 0
-138 -258 0
-139 -259 0
-131 -261 0
-132 -262 0
-133 -263 0
-134 -264 0
-135 -265 0
-136 -266 0
-137 -267 0
-138 -268 0
-139 -269 0
-131 -301 0
-132 -302 0
-133 -303 0
-134 -304 0
-135 -305 0
-136 -306 0
-137 -307 0
-138 -308 0
-139 -309 0
-141 -151 0
-142 -152 0
-143 -153 0
-144 -154 0
-145 -155 0
-146 -156 0
-147 -157 0
-148 -158 0
-149 -159 0
-141 -161 0
-142 -162 0
-143 -163 0
-144 -164 0
-145 -165 0
-146 -166 0
-147 -167 0
-148 -168 0
-149 -169 0
-141 -171 0
-142 -172 0
-143 -173 0
-144 -174 0
-145 -175 0
-146 -176 0
-147 -177 0
-148 -178 0
-149 -179 0
-141 -181 0
-142 -182 0
-143 -183 0
-144 -184 0
-145 -185 0
-146 -186 0
-147 -187 0
-148 -188 0
-149 -189 0
-141 -191 0
-142 -192 0
-143 -193 0
-144 -194 0
-145 -195 0
-146 -196 0
-147 -197 0
-148 -198 0
-149 -199 0
-141 -201 0
-142 -202 0
-143 -203 0
-144 -204 0
-145 -205 0
-146 -206 0
-147 -207 0
-148 -208 0
-149 -209 0
-141 -241 0
-142 -242 0
-143 -243 0
-144 -244 0
-145 -245 0
-146 -246 0
-147 -247 0
-148 -248 0
-149 -249 0
-141 -251 0
-142 -252 0
-143 -253 0
-144 -254 0
-145 -255 0
-146 -256 0
-147 -257 0
-148 -258 0
-149 -259 0
-141 -261 0
-142 -262 0
-143 -263 0
-144 -264 0
-145 -265 0
-146 -266 0
-147 -267 0
-148 -268 0
-149 -269 0
-141 -281 0
-142 -282 0
-143 -283 0
-144 -284 0
-145 -285 0
-146 -286 0
-147 -287 0
-148 -288 0
-149 -289 0
-141 -291 0
-142 -292 0
-143 -293 0
-144 -294 0
-145 -295 0
-146 -296 0
-147 -297 0
-148 -298 0
-149 -299 0
-141 -301 0
-142 -302 0
-143 -303 0
-144 -304 0
-145 -305 0
-146 -306 0
-147 -307 0
-148 -308 0
-149 -309 0
-151 -161 0
-152 -162 0
-153 -163 0
-154 -164 0
-155 -165 0
-156 -166 0
-157 -167 0
-158 -168 0
-159 -169 0
-151 -171 0
-152 -172 0
-153 -173 0
-154 -174 0
-155 -175 0
-156 -176 0
-157 -177 0
-158 -178 0
-159 -179 0
-151 -181 0
-152 -182 0
-153 -183 0
-154 -184 0
-155 -185 0
-156 -186 0
-157 -187 0
-158 -188 0
-159 -189 0
-151 -201 0
-152 -202 0
-153 -203 0
-154 -204 0
-155 -205 0
-156 -206 0
-157 -207 0
-158 -208 0
-159 -209 0
-151 -221 0
-152 -222 0
-153 -223 0
-154 -224 0
-155 -225 0
-156 -226 0
-157 -227 0
-158 -228 0
-159 -229 0
-151 -231 0
-152 -232 0
-153 -233 0
-154 -234 0
-155 -235 0
-156 -236 0
-157 -237 0
-158 -238 0
-159 -239 0
-151 -261 0
-152 -262 0
-153 -263 0
-154 -264 0
-155 -265 0
-156 -266 0
-157 -267 0
-158 -268 0
-159 -269 0
-151 -271 0
-152 -272 0
-153 -273 0
-154 -274 0
-155 -275 0
-156 -276 0
-157 -277 0
-158 -278 0
-159 -279 0
-151 -281 0
-152 -282 0
-153 -283 0
-154 -284 0
-155 -285 0
-156 -286 0
-157 -287 0
-158 -288 0
-159 -289 0
-151 -291 0
-152 -292 0
-153 -293 0
-154 -294 0
-155 -295 0
-156 -296 0
-157 -297 0
-158 -298 0
-159 -299 0
-161 -191 0
-162 -192 0
-163 -193 0
-164 -194 0
-165 -195 0
-166 -196 0
-167 -197 0
-168 -198 0
-169 -199 0
-161 -231 0
-162 -232 0
-163 -233 0
-164 -234 0
-165 -235 0
-166 -236 0
-167 -237 0
-168 -238 0
-169 -239 0
-161 -241 0
-162 -242 0
-163 -243 0
-164 -244 0
-165 -245 0
-166 -246 0
-167 -247 0
-168 -248 0
-169 -249 0
-161 -271 0
-162 -272 0
-163 -273 0
-164 -274 0
-165 -275 0
-166 -276 0
-167 -277 0
-168 -278 0
-169 -279 0
-161 -301 0
-162 -302 0
-163 -303 0
-164 -304 0
-165 -305 0
-166 -306 0
-167 -307 0
-168 -308 0
-169 -309 0
-171 -191 0
-172 -192 0
-173 -193 0
-174 -194 0
-175 -195 0
-176 -196 0
-177 -197 0
-178 -198 0
-179 -199 0
-171 -221 0
-172 -222 0
-173 -223 0
-174 -224 0
-175 -225 0
-176 -226 0
-177 -227 0
-178 -228 0
-179 -229 0
-171 -231 0
-172 -232 0
-173 -233 0
-174 -234 0
-175 -235 0
-176 -236 0
-177 -237 0
-178 -238 0
-179 -239 0
-171 -251 0
-172 -252 0
-173 -253 0
-174 -254 0
-175 -255 0
-176 -256 0
-177 -257 0
-178 -258 0
-179 -259 0
-171 -281 0
-172 -282 0
-173 -283 0
-174 -284 0
-175 -285 0
-176 -286 0
-177 -287 0
-178 -288 0
-179 -289 0
-171 -301 0
-172 -302 0
-173 -303 0
-174 -304 0
-175 -305 0
-176 -306 0
-177 -307 0
-178 -308 0
-179 -309 0
-181 -191 0
-182 -192 0
-183 -193 0
-184 -194 0
-185 -195 0
-186 -196 0
-187 -197 0
-188 -198 0
-189 -199 0
-181 -211 0
-182 -212 0
-183 -213 0
-184 -214 0
-185 -215 0
-186 -216 0
-187 -217 0
-188 -218 0
-189 -219 0
-181 -221 0
-182 -222 0
-183 -223 0
-184 -224 0
-185 -225 0
-186 -226 0
-187 -227 0
-188 -228 0
-189 -229 0
-181 -241 0
-182 -242 0
-183 -243 0
-184 -244 0
-185 -245 0
-186 -246 0
-187 -247 0
-188 -248 0
-189 -249 0
-181 -251 0
-182 -252 0
-183 -253 0
-184 -254 0
-185 -255 0
-186 -256 0
-187 -257 0
-188 -258 0
-189 -259 0
-181 -261 0
-182 -262 0
-183 -263 0
-184 -264 0
-185 -265 0
-186 -266 0
-187 -267 0
-188 -268 0
-189 -269 0
-181 -271 0
-182 -272 0
-183 -273 0
-184 -274 0
-185 -275 0
-186 -276 0
-187 -277 0
-188 -278 0
-189 -279 0
-181 -281 0
-182 -282 0
-183 -283 0
-184 -284 0
-185 -285 0
-186 -286 0
-187 -287 0
-188 -288 0
-189 -289 0
-181 -301 0
-182 -302 0
-183 -303 0
-184 -304 0
-185 -305 0
-186 -306 0
-187 -307 0
-188 -308 0
-189 -309 0
-191 -221 0
-192 -222 0
-193 -223 0
-194 -224 0
-195 -225 0
-196 -226 0
-197 -227 0
-198 -228 0
-199 -229 0
-191 -241 0
-192 -242 0
-193 -243 0
-194 -244 0
-195 -245 0
-196 -246 0
-197 -247 0
-198 -248 0
-199 -249 0
-191 -251 0
-192 -252 0
-193 -253 0
-194 -254 0
-195 -255 0
-196 -256 0
-197 -257 0
-198 -258 0
-199 -259 0
-191 -281 0
-192 -282 0
-193 -283 0
-194 -284 0
-195 -285 0
-196 -286 0
-197 -287 0
-198 -288 0
-199 -289 0
-201 -281 0
-202 -282 0
-203 -283 0
-204 -284 0
-205 -285 0
-206 -286 0
-207 -287 0
-208 -288 0
-209 -289 0
-201 -291 0
-202 -292 0
-203 -293 0
-204 -294 0
-205 -295 0
-206 -296 0
-207 -297 0
-208 -298 0
-209 -299 0
-201 -301 0
-202 -302 0
-203 -303 0
-204 -304 0
-205 -305 0
-206 -306 0
-207 -307 0
-208 -308 0
-209 -309 0
-211 -241 0
-212 -242 0
-213 -243 0
-214 -244 0
-215 -245 0
-216 -246 0
-217 -247 0
-218 -248 0
-219 -249 0
-211 -251 0
-212 -252 0
-213 -253 0
-214 -254 0
-215 -255 0
-216 -256 0
-217 -257 0
-218 -258 0
-219 -259 0
-211 -271 0
-212 -272 0
-213 -273 0
-214 -274 0
-215 -275 0
-216 -276 0
-217 -277 0
-218 -278 0
-219 -279 0
-211 -281 0
-212 -282 0
-213 -283 0
-214 -284 0
-215 -285 0
-216 -286 0
-217 -287 0
-218 -288 0
-219 -289 0
-211 -301 0
-212 -302 0
-213 -303 0
-214 -304 0
-215 -305 0
-216 -306 0
-217 -307 0
-218 -308 0
-219 -309 0
-221 -231 0
-222 -232 0
-223 -233 0
-224 -234 0
-225 -235 0
-226 -236 0
-227 -237 0
-228 -238 0
-229 -239 0
-221 -241 0
-222 -242 0
-223 -243 0
-224 -244 0
-225 -245 0
-226 -246 0
-227 -247 0
-228 -248 0
-229 -249 0
-221 -251 0
-222 -252 0
-223 -253 0
-224 -254 0
-225 -255 0
-226 -256 0
-227 -257 0
-228 -258 0
-229 -259 0
-221 -281 0
-222 -282 0
-223 -283 0
-224 -284 0
-225 -285 0
-226 -286 0
-227 -287 0
-228 -288 0
-229 -289 0
-221 -301 0
-222 -302 0
-223 -303 0
-224 -304 0
-225 -305 0
-226 -306 0
-227 -307 0
-228 -308 0
-229 -309 0
-231 -241 0
-232 -242 0
-233 -243 0
-234 -244 0
-235 -245 0
-236 -246 0
-237 -247 0
-238 -248 0
-239 -249 0
-231 -251 0
-232 -252 0
-233 -253 0
-234 -254 0
-235 -255 0
-236 -256 0
-237 -257 0
-238 -258 0
-239 -259 0
-231 -261 0
-232 -262 0
-233 -263 0
-234 -264 0
-235 -265 0
-236 -266 0
-237 -267 0
-238 -268 0
-239 -269 0
-231 -281 0
-232 -282 0
-233 -283 0
-234 -284 0
-235 -285 0
-236 -286 0
-237 -287 0
-238 -288 0
-239 -289 0
-231 -291 0
-232 -292 0
-233 -293 0
-234 -294 0
-235 -295 0
-236 -296 0
-237 -297 0
-238 -298 0
-239 -299 0
-231 -301 0
-232 -302 0
-233 -303 0
-234 -304 0
-235 -305 0
-236 -306 0
-237 -307 0
-238 -308 0
-239 -309 0
-241 -251 0
-242 -252 0
-243 -253 0
-244 -254 0
-245 -255 0
-246 -256 0
-247 -257 0
-248 -258 0
-249 -259 0
-241 -261 0
-242 -262 0
-243 -263 0
-244 -264 0
-245 -265 0
-246 -266 0
-247 -267 0
-248 -268 0
-249 -269 0
-251 -261 0
-252 -262 0
-253 -263 0
-254 -264 0
-255 -265 0
-256 -266 0
-257 -267 0
-258 -268 0
-259 -269 0
-251 -291 0
-252 -292 0
-253 -293 0
-254 -294 0
-255 -295 0
-256 -296 0
-257 -297 0
-258 -298 0
-259 -299 0
-251 -301 0
-252 -302 0
-253 -303 0
-254 -304 0
-255 -305 0
-256 -306 0
-257 -307 0
-258 -308 0
-259 -309 0
-261 -281 0
-262 -282 0
-263 -283 0
-264 -284 0
-265 -285 0
-266 -286 0
-267 -287 0
-268 -288 0
-269 -289 0
-261 -301 0
-262 -302 0
-263 -303 0
-264 -304 0
-265 -305 0
-266 -306 0
-267 -307 0
-268 -308 0
-269 -309 0
-271 -291 0
-272 -292 0
-273 -293 0
-274 -294 0
-275 -295 0
-276 -296 0
-277 -297 0
-278 -298 0
-279 -299 0
-281 -291 0
-282 -292 0
-283 -293 0
-284 -294 0
-285 -295 0
-286 -296 0
-287 -297 0
-288 -298 0
-289 -299 0
-291 -301 0
-292 -302 0
-293 -303 0
-294 -304 0
-295 -305 0
-296 -306 0
-297 -307 0
-298 -308 0
-299 -309 0
